n=15;
t=18;
profit=[7 9 8 3 1 2 7 8 6 6 8 1 7 3 10];
length=[2 1 3 4 1 4 3 3 1 4 5 1 2 5 2];
min_deliver=[6 2 3 5 3 7 9 9 1 5 8 13 4 5 5];
max_deliver=[15 10 3 5 6 13 9 12 1 5 10 17 8 10 5];
surface=[3 2 5 5 4 2 3 1 1 3 5 2 1 1 4];
surface_capacity=8;
